c generated by sgen
c see http://www.cs.qub.ac.uk/~i.spence/sgen
p cnf 109 228
-2 -3 -4 0
-1 -3 -4 0
-1 -2 -4 0
-1 -2 -3 0
-6 -7 -8 0
-5 -7 -8 0
-5 -6 -8 0
-5 -6 -7 0
-10 -11 -12 0
-9 -11 -12 0
-9 -10 -12 0
-9 -10 -11 0
-14 -15 -16 0
-13 -15 -16 0
-13 -14 -16 0
-13 -14 -15 0
-18 -19 -20 0
-17 -19 -20 0
-17 -18 -20 0
-17 -18 -19 0
-22 -23 -24 0
-21 -23 -24 0
-21 -22 -24 0
-21 -22 -23 0
-26 -27 -28 0
-25 -27 -28 0
-25 -26 -28 0
-25 -26 -27 0
-30 -31 -32 0
-29 -31 -32 0
-29 -30 -32 0
-29 -30 -31 0
-34 -35 -36 0
-33 -35 -36 0
-33 -34 -36 0
-33 -34 -35 0
-38 -39 -40 0
-37 -39 -40 0
-37 -38 -40 0
-37 -38 -39 0
-42 -43 -44 0
-41 -43 -44 0
-41 -42 -44 0
-41 -42 -43 0
-46 -47 -48 0
-45 -47 -48 0
-45 -46 -48 0
-45 -46 -47 0
-50 -51 -52 0
-49 -51 -52 0
-49 -50 -52 0
-49 -50 -51 0
-54 -55 -56 0
-53 -55 -56 0
-53 -54 -56 0
-53 -54 -55 0
-58 -59 -60 0
-57 -59 -60 0
-57 -58 -60 0
-57 -58 -59 0
-62 -63 -64 0
-61 -63 -64 0
-61 -62 -64 0
-61 -62 -63 0
-66 -67 -68 0
-65 -67 -68 0
-65 -66 -68 0
-65 -66 -67 0
-70 -71 -72 0
-69 -71 -72 0
-69 -70 -72 0
-69 -70 -71 0
-74 -75 -76 0
-73 -75 -76 0
-73 -74 -76 0
-73 -74 -75 0
-78 -79 -80 0
-77 -79 -80 0
-77 -78 -80 0
-77 -78 -79 0
-82 -83 -84 0
-81 -83 -84 0
-81 -82 -84 0
-81 -82 -83 0
-86 -87 -88 0
-85 -87 -88 0
-85 -86 -88 0
-85 -86 -87 0
-90 -91 -92 0
-89 -91 -92 0
-89 -90 -92 0
-89 -90 -91 0
-94 -95 -96 0
-93 -95 -96 0
-93 -94 -96 0
-93 -94 -95 0
-98 -99 -100 0
-97 -99 -100 0
-97 -98 -100 0
-97 -98 -99 0
-102 -103 -104 0
-101 -103 -104 0
-101 -102 -104 0
-101 -102 -103 0
-105 -106 -107 0
-105 -106 -108 0
-105 -106 -109 0
-105 -107 -108 0
-105 -107 -109 0
-105 -108 -109 0
-106 -107 -108 0
-106 -107 -109 0
-106 -108 -109 0
-107 -108 -109 0
37 58 97 0
17 58 97 0
17 37 97 0
17 37 58 0
91 30 98 0
94 30 98 0
94 91 98 0
94 91 30 0
32 69 57 0
28 69 57 0
28 32 57 0
28 32 69 0
50 31 47 0
109 31 47 0
109 50 47 0
109 50 31 0
92 39 71 0
12 39 71 0
12 92 71 0
12 92 39 0
33 108 70 0
104 108 70 0
104 33 70 0
104 33 108 0
25 96 7 0
67 96 7 0
67 25 7 0
67 25 96 0
59 23 76 0
56 23 76 0
56 59 76 0
56 59 23 0
100 27 22 0
79 27 22 0
79 100 22 0
79 100 27 0
18 63 90 0
73 63 90 0
73 18 90 0
73 18 63 0
77 20 95 0
2 20 95 0
2 77 95 0
2 77 20 0
40 1 43 0
52 1 43 0
52 40 43 0
52 40 1 0
34 48 78 0
65 48 78 0
65 34 78 0
65 34 48 0
10 64 102 0
60 64 102 0
60 10 102 0
60 10 64 0
4 55 106 0
66 55 106 0
66 4 106 0
66 4 55 0
87 21 89 0
68 21 89 0
68 87 89 0
68 87 21 0
15 81 93 0
51 81 93 0
51 15 93 0
51 15 81 0
107 11 29 0
86 11 29 0
86 107 29 0
86 107 11 0
62 44 85 0
84 44 85 0
84 62 85 0
84 62 44 0
38 82 101 0
24 82 101 0
24 38 101 0
24 38 82 0
75 13 80 0
72 13 80 0
72 75 80 0
72 75 13 0
6 41 74 0
36 41 74 0
36 6 74 0
36 6 41 0
83 61 105 0
45 61 105 0
45 83 105 0
45 83 61 0
88 26 3 0
35 26 3 0
35 88 3 0
35 88 26 0
5 9 49 0
53 9 49 0
53 5 49 0
53 5 9 0
46 8 16 0
99 8 16 0
99 46 16 0
99 46 8 0
19 42 103 0
19 42 54 0
19 42 14 0
19 103 54 0
19 103 14 0
19 54 14 0
42 103 54 0
42 103 14 0
42 54 14 0
103 54 14 0
